p wcnf 9 31 177
177 1 4 0
177 1 5 0
177 1 6 0
177 1 9 0
177 2 6 0
177 2 7 0
177 2 9 0
177 3 4 0
177 3 5 0
177 3 6 0
177 3 7 0
177 3 8 0
177 3 9 0
177 4 5 0
177 5 6 0
177 5 7 0
177 6 7 0
177 6 8 0
177 6 9 0
177 7 8 0
177 7 9 0
177 8 9 0
18 -1 0
19 -2 0
16 -3 0
21 -4 0
20 -5 0
19 -6 0
20 -7 0
21 -8 0
22 -9 0
